r2_10_6

VEHICLE
NUMBER   CAPACITY
250     1000

CUSTOMER
CUST NO. XCOORD.  YCOORD.  DEMAND  READY TIME DUE DATE  SERVICE TIME

0   250    250     0     0    7697     0
493 297 304 4 166 406 10
716 299 285 3 4955 5195 10
454 318 280 21 177 417 10
542 330 281 14 5262 5502 10
260 332 382 2 3982 4222 10
34 346 354 8 3210 3450 10
4 340 291 22 1822 2062 10
250 299 353 34 0 7573 10
436 342 319 36 340 580 10
520 297 283 28 0 7630 10
567 331 356 13 0 7554 10
320 330 308 24 4622 4862 10
747 330 371 1 2174 2414 10
181 284 319 17 3207 3447 10
73 343 276 15 266 506 10
9 295 283 26 3513 3753 10
929 333 293 27 2408 2648 10
58 322 290 23 0 7605 10
207 325 311 22 5229 5469 10
977 290 328 7 515 755 10
707 348 348 23 0 7549 10
